c --- [ banner ] -------------------------------------------------------------
c 
c CaDiCaL Radically Simplified CDCL SAT Solver
c Copyright (c) 2016-2021 A. Biere, M. Fleury, N. Froleyks
c 
c Version 1.5.2 a5f15211db36c3956764e18194dd5bd63bf3b5e6
c g++ (GCC) 9.3.0 -Wall -Wextra -O3 -DNDEBUG
c Fri Oct 21 01:27:37 EDT 2022 Linux gra-login3 3.10.0-1160.66.1.el7.x86_64 x86_64
c 
c --- [ limit ] --------------------------------------------------------------
c 
c setting conflict limit to 200000 conflicts (due to '200000')
c 
c --- [ parsing input ] ------------------------------------------------------
c 
c reading DIMACS file from '33.cubes337.adj'
c opening file to read '33.cubes337.adj'
c found 'p cnf 6160 1595473' header
c parsed 1595473 clauses in 14.64 seconds process time
c closing file '33.cubes337.adj'
c after reading 1457566761 bytes 1390.0 MB
c 
c --- [ options ] ------------------------------------------------------------
c 
c all options are set to their default value
c 
c --- [ solving ] ------------------------------------------------------------
c 
c time measured in process time since initialization
c 
c  seconds    reductions  redundant   irredundant
c          MB     restarts       trail       variables
c            level   conflicts       glue         remaining
c 
c * 14.65 1367  0 0   0    0    0  0% 0 1595422 2382 39%
c { 15.23 1414  0 0   0    0    0  0% 0 1595422 2382 39%
c i 15.97 1447 1157 0   0   19   18 36% 1 1595422 2381 39%
c i 16.00 1448 1164 0   1   25   23 39% 4 1595422 2380 39%
c i 16.04 1448 1080 0   1   27   23 37% 6 1595422 2346 38%
c i 16.95 1474 810 0   6   52   41 37% 17 1595422 2345 38%
c i 17.10 1480 761 0   7   57   45 37% 25 1595422 2344 38%
c i 17.27 1485 735 0   8   59   46 36% 24 1595422 2340 38%
c i 18.11 1492 468 0  14   95   75 33% 23 1595422 2339 38%
c i 18.11 1492 463 0  14   96   75 33% 22 1595422 2338 38%
c i 18.12 1492 455 0  14   98   76 33% 22 1595422 2337 38%
c i 18.12 1492 446 0  14  100   77 32% 22 1595422 2336 38%
c i 18.13 1492 442 0  14  101   77 32% 22 1595422 2335 38%
c i 18.14 1492 427 0  14  105   80 32% 23 1595422 2334 38%
c i 18.14 1492 424 0  14  106   80 32% 23 1595422 2333 38%
c i 18.19 1492 410 0  14  110   83 32% 22 1595422 2332 38%
c i 18.22 1492 385 0  14  119   90 32% 23 1595422 2331 38%
c i 18.33 1493 352 0  17  132  100 32% 24 1595422 2330 38%
c i 18.35 1493 347 0  17  134  101 32% 24 1595422 2329 38%
c i 18.36 1493 345 0  17  135  101 32% 23 1595422 2328 38%
c 
c  seconds     reductions  redundant    irredundant
c          MB      restarts       trail        variables
c             level   conflicts       glue          remaining
c 
c i 18.36 1493 342 0  17  136  101 32% 23 1595422 2327 38%
c i 18.37 1493 322 0  17  147  109 31% 23 1595422 2326 38%
c i 18.38 1493 319 0  17  149  110 31% 23 1595422 2325 38%
c i 18.38 1493 317 0  17  150  110 31% 22 1595422 2324 38%
c i 18.38 1493 312 0  17  153  112 31% 22 1595422 2323 38%
c i 18.38 1493 310 0  17  154  112 31% 22 1595422 2322 38%
c i 18.41 1493 298 0  17  162  118 31% 23 1595422 2321 38%
c i 18.46 1493 267 0  20  185  135 31% 24 1595422 2320 38%
c i 18.56 1497 257 0  23  193  137 30% 24 1595422 2319 38%
c i 18.63 1497 227 0  23  222  160 30% 24 1595422 2318 38%
c - 22.23 1418 183 1  35  302  219 29% 25 248331 2318 38%
c i 22.67 1418 171 1  40  336  250 29% 26 248331 2317 38%
c i 23.02 1419 168 1  46  357  270 29% 28 248331 2316 38%
c i 23.09 1419 165 1  48  366  277 29% 28 248331 2315 38%
c i 23.12 1419 165 1  49  370  279 29% 28 248331 2313 38%
c i 23.24 1419 167 1  51  384  287 29% 29 248331 2308 37%
c i 23.29 1419 167 1  53  393  293 29% 29 248331 2301 37%
c i 23.32 1419 167 1  54  396  295 29% 29 248331 2300 37%
c i 23.33 1419 168 1  55  402  298 29% 29 248331 2293 37%
c i 23.34 1419 168 1  56  403  298 29% 29 248331 2292 37%
c 
c  seconds     reductions  redundant   irredundant
c          MB      restarts       trail       variables
c             level   conflicts       glue         remaining
c 
c i 23.43 1419 169 1  58  421  312 28% 30 248331 2289 37%
c i 23.48 1419 169 1  60  426  316 28% 30 248331 2281 37%
c i 24.10 1366 141 1  85  599  433 27% 34 248331 2278 37%
c i 24.10 1366 141 1  85  600  433 27% 34 248331 2277 37%
c i 24.19 1366 135 1  85  637  465 27% 33 248331 2276 37%
c i 24.27 1366 133 1  85  656  482 27% 33 248331 2275 37%
c i 24.30 1366 131 1  85  668  488 27% 33 248331 2274 37%
c i 24.34 1366 128 1  85  688  505 27% 33 248331 2273 37%
c i 24.38 1366 127 1  85  704  517 27% 33 248331 2272 37%
c i 24.38 1366 126 1  85  709  521 27% 33 248331 2271 37%
c i 24.38 1366 126 1  85  710  521 27% 33 248331 2270 37%
c i 24.39 1366 126 1  85  712  522 27% 33 248331 2269 37%
c i 24.44 1366 126 1  85  719  527 27% 33 248331 2267 37%
c i 24.44 1366 126 1  85  722  528 27% 33 248331 2265 37%
c i 24.44 1366 126 1  85  723  528 27% 33 248331 2264 37%
c i 24.44 1366 126 1  85  728  531 27% 33 248331 2262 37%
c i 24.44 1366 126 1  85  730  532 28% 33 248331 2261 37%
c i 24.47 1366 126 1  86  736  536 28% 33 248331 2260 37%
c i 24.52 1366 125 1  88  747  545 28% 34 248331 2259 37%
c i 24.55 1366 125 1  89  757  546 27% 33 248331 2252 37%
c 
c  seconds     reductions  redundant   irredundant
c          MB      restarts       trail       variables
c             level   conflicts       glue         remaining
c 
c i 24.65 1366 127 1  90  847  578 27% 31 248331 2251 37%
c i 24.87 1366 126 1  95  888  612 27% 32 248331 2250 37%
c i 24.87 1366 126 1  95  889  612 27% 32 248331 2249 37%
c i 24.92 1366 125 1  95  904  626 27% 32 248331 2248 36%
c i 25.07 1366 122 1  95  938  657 27% 31 248331 2247 36%
c i 25.30 1366 119 1  99  999  708 27% 32 248331 2246 36%
c } 25.30 1366 118 1  99 1000  709 27% 32 248331 2246 36%
c [ 25.30 1366  0 1  99 1000  709  0% 0 248331 2246 36%
c O 25.33 1366 34 1  99 1002  711 30% 6 248331 2246 36%
c i 25.35 1366 20 1  99 1009  717 33% 12 248331 2245 36%
c i 25.37 1366 51 1  99 1033  739 32% 32 248331 2244 36%
c i 25.38 1366 55 1  99 1040  744 31% 29 248331 2242 36%
c - 25.86 1473 98 2  99 1141  734 33% 64 247774 2242 36%
c i 25.92 1473 94 2  99 1155  747 33% 61 247774 2241 36%
c i 25.92 1473 92 2  99 1159  750 32% 60 247774 2240 36%
c i 25.93 1473 87 2  99 1173  760 32% 57 247774 2239 36%
c i 25.93 1473 87 2  99 1174  760 32% 57 247774 2238 36%
c i 25.93 1473 86 2  99 1176  761 32% 56 247774 2237 36%
c i 26.00 1473 63 2  99 1271  827 32% 43 247774 2236 36%
c i 26.00 1473 63 2  99 1272  827 32% 43 247774 2235 36%
c 
c  seconds    reductions  redundant   irredundant
c          MB     restarts       trail       variables
c            level   conflicts       glue         remaining
c 
c i 26.01 1473 59 2  99 1299  842 32% 41 247774 2234 36%
c ] 26.12 1473 36 2  99 1693 1081 33% 27 247774 2234 36%
c 1 26.12 1473 36 2  99 1693 1081 33% 27 247774 2234 36%
c 
c --- [ writing output ] -----------------------------------------------------
c 
c writing simplified CNF to DIMACS file 'simp/33.cubes337.adj.simp1'
c * 26.12 1473 36 2  99 1693 1081 33% 27 247774 2234 36%
c opening file to write 'simp/33.cubes337.adj.simp1'
c writing 'p cnf 6160 247750' header
c closing file 'simp/33.cubes337.adj.simp1'
c after writing 123355577 bytes 117.6 MB
c wrote 247750 clauses in 0.66 seconds process time
c 
c --- [ writing extension ] --------------------------------------------------
c 
c writing extension stack to 'simp/33.cubes337.adj.ext1'
c opening file to write 'simp/33.cubes337.adj.ext1'
c closing file 'simp/33.cubes337.adj.ext1'
c after writing 11532 bytes 0.0 MB
c wrote 782 witnesses in 0.00 seconds process time
c 
c --- [ result ] -------------------------------------------------------------
c 
s SATISFIABLE
c 
c --- [ run-time profiling ] -------------------------------------------------
c 
c process time taken by individual solving procedures
c (percentage relative to process time for solving)
c 
c        14.64  127.64% parse
c        11.47  100.00% search
c        10.06   87.71% unstable
c         0.82    7.18% stable
c         0.59    5.11% lucky
c         0.00    0.00% simplify
c   =================================
c        11.47   42.85% solve
c 
c last line shows process time for solving
c (percentage relative to total process time)
c 
c --- [ statistics ] ---------------------------------------------------------
c 
c chronological:               536        31.66 %  of conflicts
c conflicts:                  1693       147.56    per second
c decisions:                 23459      2044.61    per second
c fixed:                       782        12.69 %  of all variables
c learned:                    1657        97.87 %  per conflict
c learned_lits:             252846       100.00 %  learned literals
c minimized:                     0         0.00 %  learned literals
c shrunken:                 147219        58.22 %  learned literals
c minishrunken:              15812         6.25 %  learned literals
c propagations:             301708         0.03 M  per second
c reduced:                     102         6.02 %  per conflict
c rephased:                      1      1693.00    interval
c restarts:                     99        17.10    interval
c stabilizing:                   1        40.93 %  of conflicts
c subsumed:                    379         0.01 %  of all clauses
c 
c seconds are measured in process time for solving
c 
c --- [ resources ] ----------------------------------------------------------
c 
c total process time since initialization:        26.78    seconds
c total real time since initialization:           26.97    seconds
c maximum resident set size of process:         1498.19    MB
c 
c --- [ shutting down ] ------------------------------------------------------
c 
c exit 10
WARNING! DIMACS header mismatch: wrong number of variables.
============================[ Problem Statistics ]=============================
|                                                                             |
|  Number of variables:          6120                                         |
|  Number of clauses:          247750                                         |
|  Parse time:                   1.41 s                                       |
|  Simplification time:          0.03 s                                       |
|                                                                             |
============================[ Search Statistics ]====================================================
| Conflicts |          ORIGINAL         |          LEARNT          | Num Sols |      SUBGRAPHS      |
|           |    Vars  Clauses Literals |    Limit  Clauses Lit/Cl |          | Canonical Noncanon. |
=====================================================================================================
|       100 |    6025   247750 26370759 |     2000       99     77 |        0 |        21         0 |
|       274 |    6022   247774 26371302 |     2000      270     80 |        0 |        33        24 |
|       501 |    6019   247776 26371423 |     2000      494     99 |        0 |        36        26 |
|       902 |    6013   247840 26373614 |     2000      889     93 |        0 |        70        90 |
|      1505 |    6005   247937 26376119 |     2000     1484     88 |        0 |        95       187 |
|      2382 |    6001   248055 26378843 |     3592     1374     58 |        0 |       130       305 |
|      3581 |    5998   248115 26380833 |     3592     2570     75 |        0 |       166       365 |
|      5439 |    5996   248265 26385030 |     4995     2634     70 |        0 |       226       515 |
|      8329 |    5994   248593 26391831 |     6299     3028     49 |        0 |       283       843 |
|     12261 |    5992   248681 26394249 |     7553     3814     55 |        0 |       349       931 |
|     20781 |    5992   251435 26458192 |     8779     8560     48 |        0 |       611      3685 |
|     31718 |    5991   253723 26496859 |    11198    10116     58 |        0 |      1295      5973 |
|     44990 |    5991   254021 26503186 |    13612    11602     63 |        0 |      1471      6271 |
|     67716 |    5989   257286 26559305 |    17216    12131     47 |        0 |      2337      9536 |
|     97243 |    5988   257621 26567842 |    20808    14051     46 |        0 |      2581      9871 |
|    142384 |    5988   258973 26593749 |    25610    13994     36 |        0 |      3054     11223 |
|    211954 |    5988   262859 26667941 |    30414    28768     55 |        0 |      4373     15109 |
|    317343 |    5988   269608 26775844 |    37610    33953     59 |        0 |      7188     21972 |
|    470094 |    5988   274570 26896045 |    46013    42507     60 |        0 |     10232     26934 |
|    694224 |    5988   277017 26961698 |    56815    38039     52 |        0 |     12452     29381 |
|   1044169 |    5988   294437 27327274 |    70021    42590     46 |        0 |     19925     46801 |
|   1634735 |    5988   386215 29260222 |    88008    45143     30 |        0 |     35011    138579 |
|   2455156 |    5988   458454 30786935 |   107231    89587     60 |        0 |     70202    210818 |
|   3681084 |    5988   562108 32643433 |   131219   129503     59 |        4 |    119490    314468 |
=====================================================================================================
Number of solutions   : 4
Canonical subgraphs   : 146982         (19 /sec)
          order  3    : 1              (200000 /sec)
          order  4    : 1              (500000 /sec)
          order  5    : 1              (333333 /sec)
          order  6    : 1              (58824 /sec)
          order  7    : 1              (9346 /sec)
          order  8    : 1              (1122 /sec)
          order  9    : 2              (166 /sec)
          order 10    : 5              (86 /sec)
          order 11    : 20             (73 /sec)
          order 12    : 65             (72 /sec)
          order 13    : 138            (51 /sec)
          order 14    : 1787           (38 /sec)
          order 15    : 9757           (27 /sec)
          order 16    : 71920          (21 /sec)
          order 17    : 47153          (17 /sec)
          order 18    : 13716          (17 /sec)
          order 19    : 1768           (18 /sec)
          order 20    : 340            (19 /sec)
          order 21    : 301            (18 /sec)
          order 22    : 4              (1 /sec)
Noncanonical subgraphs: 411342         (163 /sec)
          order  3    : 0              (-nan /sec)
          order  4    : 0              (-nan /sec)
          order  5    : 0              (-nan /sec)
          order  6    : 0              (-nan /sec)
          order  7    : 0              (-nan /sec)
          order  8    : 0              (-nan /sec)
          order  9    : 0              (-nan /sec)
          order 10    : 0              (-nan /sec)
          order 11    : 0              (-nan /sec)
          order 12    : 0              (-nan /sec)
          order 13    : 393            (40848 /sec)
          order 14    : 5715           (2354 /sec)
          order 15    : 14795          (1496 /sec)
          order 16    : 370428         (163 /sec)
          order 17    : 19673          (88 /sec)
          order 18    : 10             (1315 /sec)
          order 19    : 0              (-nan /sec)
          order 20    : 1              (815 /sec)
          order 21    : 0              (-nan /sec)
Canonicity checking   : 7559.58 s
Noncanonicity checking: 2520.16 s
Total canonicity time : 10079.7 s
database reductions   : 117
restarts              : 7739
conflicts             : 4349184        (349 /sec)
decisions             : 5505069        (0.00 % random) (442 /sec)
propagations          : 524333156      (42076 /sec)
conflict literals     : 410656008      (58.51 % deleted)
actual reward         : 0.120440
Memory used           : 484.00 MB
CPU time              : 12461.5 s

UNSATISFIABLE
